NAME : local_11
TYPE : ATSP
DIMENSION : 6
EDGE_WEIGHT_TYPE : EXPLICIT
EDGE_WEIGHT_FORMAT : FULL_MATRIX
EDGE_WEIGHT_SECTION
0 446 10000000 244 10000000 548 
0 0 10000000 215 10000000 967 
0 10000000 0 10000000 486 10000000 
0 215 10000000 0 10000000 785 
0 10000000 486 10000000 0 10000000 
0 10000000 10000000 10000000 10000000 0 
EOF